NAME : kroA150.11018.tour
COMMENT : Length = 11018
COMMENT : Found by LKH [Keld Helsgaun] Wed May 29 17:05:41 2013
TYPE : TOUR
DIMENSION : 30
TOUR_SECTION
8
42
97
4
65
53
106
18
24
38
72
47
98
77
20
55
46
136
14
30
96
37
103
116
50
114
69
108
28
142
-1
EOF
